<number of tasks>
50

<cycle time>
1000

<order strength>
0.595


<task times>
1 89
2 345
3 244
4 252
5 247
6 498
7 342
8 207
9 176
10 73
11 252
12 169
13 468
14 189
15 159
16 313
17 35
18 545
19 169
20 94
21 42
22 505
23 361
24 249
25 495
26 30
27 43
28 570
29 191
30 93
31 27
32 550
33 238
34 120
35 37
36 286
37 493
38 101
39 74
40 195
41 530
42 178
43 42
44 205
45 25
46 84
47 521
48 388
49 587
50 35

<precedence relations>
1,16
2,19
3,4
3,5
3,6
3,7
3,8
3,9
3,10
3,11
4,16
5,16
6,16
7,35
8,19
9,19
10,12
10,14
10,18
11,12
11,13
11,14
11,15
12,16
13,35
14,19
15,16
15,17
15,18
15,20
15,21
16,22
16,23
16,24
16,25
17,35
18,35
19,26
19,27
19,28
19,29
19,30
19,32
19,33
20,30
20,31
20,32
20,33
20,34
21,30
21,32
21,33
21,34
22,31
22,32
22,33
22,34
23,31
23,33
23,34
24,32
24,33
24,34
24,35
25,35
25,36
26,31
27,34
28,34
28,47
31,35
32,44
33,41
33,42
33,43
34,36
34,45
34,48
35,37
35,38
35,39
35,40
36,44
36,46
37,41
37,42
37,43
38,41
38,43
39,44
39,45
39,46
39,47
39,48
40,42
40,50
41,44
41,45
41,48
42,44
42,46
42,47
43,44
43,47
43,50
45,49
45,50
46,49
47,49

<end>
